sat
(:max-memory                   18.43
 :memory                       18.43
 :nlsat-arith-var              3
 :nlsat-atoms                  6
 :nlsat-bool-var               1
 :nlsat-clauses                6
 :nlsat-irrational-assignments 1
 :nlsat-propagations           6
 :nlsat-stages                 4
 :num-allocs                   41763
 :rlimit-count                 527
 :time                         0.00
 :total-time                   0.02)
